 &control
    calculation='scf'
    restart_mode='from_scratch',
    pseudo_dir='./'
    outdir='./'
    prefix='pwscf',
tstress=T
tprnfor=T
 
/
 &system    
    ibrav = 2, 
    celldm(1) = 10.20, 
    nat = 2, 
    ntyp = 1,
    ecutwfc = 80
    ecutrho = 320
!input_dft='lda' 
/
 &electrons
    diagonalization = 'davidson'
    mixing_mode = 'plain',
    conv_thr =  1.0d-8
    mixing_beta = 0.7
 /
ATOMIC_SPECIES
 Si  28.0855 Si_ONCV_PBE_fr.upf
ATOMIC_POSITIONS
 Si 0.00 0.00 0.00 
 Si 0.25 0.25 0.25 

K_POINTS {automatic}
4 4 4 0 0 0



