&CONTROL
		calculation="relax" !scf nscf 
                restart_mode = 'from_scratch'
                  pseudo_dir = "./"
                      prefix = 'pwscf'
tstress=T
tprnfor=T
etot_conv_thr=1d-5
forc_conv_thr=1d-4
/
!-------------------------------------------------------------------------------------
&SYSTEM
!>------
ibrav = 0
A =    1.0000000000000000
nat = 3
ntyp = 2
nbnd=16
!<------
		ecutwfc = 80 
		ecutrho = 320 !4*ecutwfc
!    		occupations='smearing'
!		smearing='marzari-vanderbilt'
!		degauss=0.02

!		nspin = 1 ! 2 4
/
!----------------------------------------------------------------------------------------------------
&ELECTRONS
!		diagonalization = david !cg ...
		electron_maxstep = 200
		scf_must_converge = T
		conv_thr = 1.0d-8 !a.u.
/

!----------------------------------------------------------------------------------------
&IONS
!		ion_dynamics="bfgs"
/
!----------------------------------------------------------------------------------------
&CELL
/

!----------------------------------------------------------------------------------------
K_POINTS {automatic}
2 1 1  0 0 0

 
! 
CELL_PARAMETERS {alat}
  10.0000000000000000 	0.0000000000000000 	0.0000000000000000
  0.0000000000000000 	10.0000000000000000 	0.0000000000000000
  0.0000000000000000 	0.0000000000000000 	10.0000000000000000
ATOMIC_SPECIES
  O 15.9994 O_ONCV_PBE_fr.upf
  C 12.0107 C_ONCV_PBE_fr.upf
ATOMIC_POSITIONS {alat}
  O   6.1519999250000001 5.0000000000000000 5.0000000000000000
  O   3.8480000750000003 5.0000000000000000 5.0000000000000000
  C   5.0000000430000000 5.0000000000000000 5.0000000000000000
!=====================================
! 
