 &CONTROL
    prefix = 'pwscf'

    ! outdir = 'temporary directory for large files'
    ! pseudo_dir = 'directory where pp-files are kept',
 /

 &SYSTEM    
    ibrav =  2,
    celldm(1) = 7.50,
    nat =  1,
    ntyp = 1,
    ecutwfc = 12.0, 

    occupations = 'smearing',
    smearing = 'marzari-vanderbilt',
    degauss = 0.06
 /

 &ELECTRONS
 /

ATOMIC_SPECIES
   Al  26.98 Al_ONCV_PBE_sr.upf
   
ATOMIC_POSITIONS alat
   Al 0.00 0.00 0.00
   
K_POINTS automatic
   10 10 10 1 1 1
