&INPUT
fildyn="matdyn"
flfrc='matdyn.ifc'
/

