Phonons on a uniform q-grid
 &inputph
  prefix='pwscf',
  tr2_ph = 1.0d-14,
  ldisp = .true.,
  nq1 = 4,
  nq2 = 4, 
  nq3 = 4,
  outdir='../'
  fildyn='matdyn',
!lraman=.true.
 /
