 &CONTROL
    calculation = 'bands',
    prefix      = 'pwscf',
    ! otudir      = '/tmp',
    pseudo_dir  = '/home/cndaqiang/ONCVPSP/abinit',
 /
 
 &SYSTEM
    nbnd=10
    ibrav     = 4,
    celldm(1) = 4.654,
    celldm(3) = 3.0,
    nat  = 2,
    ntyp = 1,
    ecutwfc = 80.0,
    ecutrho = 320.0,

!    occupations='tetrahedra'
 /
 
 &ELECTRONS
    conv_thr = 1.0d-8
 /
 
ATOMIC_SPECIES
   C  12.0107 C_ONCV_PZ_fr.upf
ATOMIC_POSITIONS {alat}
   C    0.000000    0.0000000   0.000000
   C    0.000000    0.5773503   0.000000
   

K_POINTS {crystal_b}
4
# Gamma-K-M-Gamma
   0.0000000000     0.0000000000     0.0000000000     20 \Gamma
   0.3333333333     0.3333333333     0.0000000000     10 K 
   0.0000000000     0.5000000000     0.0000000000     17 M
   0.0000000000     0.0000000000     0.0000000000     0  \Gamma
