 &CONTROL
    calculation = 'nscf',
    prefix      = 'pwscf',
    ! otudir      = '/tmp',
    pseudo_dir  = '/home/cndaqiang/ONCVPSP/abinit',        
 /

 &SYSTEM
    ibrav     = 4,
    celldm(1) = 4.654,
    celldm(3) = 3.0,
    nat  = 2,
    ntyp = 1,
    ecutwfc = 80.0,
    ecutrho = 300.0,

    occupations='tetrahedra'
 /
 
 &ELECTRONS
    conv_thr = 1.0d-8
 /
 
ATOMIC_SPECIES
   C  12.0107 C_ONCV_PBE_sr.upf
   
ATOMIC_POSITIONS alat
   C    0.000000    0.0000000   0.000000
   C    0.000000    0.5773503   0.000000
   
K_POINTS automatic
   12 12 1 0 0 0
