!各个图像的计算参数，把pw.x的输入复制过来，
!仅不包含原子结构ATOMIC_POSITIONS，其他的如晶格参数，赝势依旧在此处填写
&CONTROL
pseudo_dir = './'
/
&SYSTEM
  ibrav = 0
  A =    1.00000000000000
  nat = 3
  ntyp = 3

  ecutwfc = 30
!  	kinetic energy cutoff (Ry) for wavefunctions
  ecutrho = 200 !4*ecutwfc

/
&ELECTRONS
/

CELL_PARAMETERS {alat}
  20.0000000000000000   0.0000000000000000   0.0000000000000000
   0.0000000000000000  20.0000000000000000   0.0000000000000000
   0.0000000000000000   0.0000000000000000  20.0000000000000000
ATOMIC_SPECIES
  C 12.0107 C_ONCV_PBE_fr.upf
  N 14.0067 N_ONCV_PBE_fr.upf
  H 1.00794 H_ONCV_PBE_fr.upf
K_POINTS {automatic}
1 1 1  0 0 0

ATOMIC_POSITIONS {crystal}
C   0.5000000000000000 0.5000000000000000 0.4414141678546500
N   0.5000000000000000 0.5000000000000000 0.5001920800889998
H   0.5000000000000000 0.5000000000000000 0.5503937520563474

