Phonons on a uniform q-grid
 &inputph
  prefix='Si',
  tr2_ph = 1.0d-14,
  amass(1) = 28.0855,
  ldisp = .true.,
  nq1 = 2,
  nq2 = 2, 
  nq3 = 2,
  outdir='./out'
  fildyn='Si.dyn',
lraman=.true.
 /
