Phonons on a uniform q-grid
 &inputph
  prefix='pwscf',
  tr2_ph = 1.0d-14,
  ldisp = .true.,
  nq1 = 1,
  nq2 = 1, 
  nq3 = 1,
  qplot=.true.
  q_in_band_form=.true.
  outdir='../'
  fildyn='matdyn',
!lraman=.true.
 /
2
0.0 0.0 0.0 10
0.5 0.0 0.0 0

